p cnf 23 26
1 2 0
-1 -2 0
3 4 0
-3 -4 0
5 6 0
-5 -6 0
7 8 0
-7 -8 0
9 10 0
-9 -10 0
11 12 0
-11 -12 0
13 14 0
-13 -14 0
15 16 0
-15 -16 0
17 18 0
-17 -18 0
19 0
20 0
21 22 23 0
-21 -22 -23 0
21 -22 -23 0
-21 22 -23 0
-21 -22 23 0
-10 -13 0